sat
(:added-eqs                       3241344
 :arith-eq-adapter                3522
 :arith-bound-propagations-lp     569454
 :arith-branch                    565
 :arith-conflicts                 43876
 :arith-cube-calls                260
 :arith-diseq                     1326897
 :arith-fixed-eqs                 825535
 :arith-gcd-calls                 5084
 :arith-gcd-conflict              7
 :arith-gomory-cuts               313
 :arith-grobner-calls             5666
 :arith-grobner-conflicts         1565
 :arith-hnf-calls                 9
 :arith-horner-calls              1491
 :arith-horner-conflicts          46
 :arith-horner-cross-nested-forms 164508
 :arith-lower                     1696601
 :arith-make-feasible             533262
 :arith-max-columns               3262
 :arith-max-rows                  1974
 :arith-nla-add-bounds            1444
 :arith-nla-lemmas                20621
 :arith-nla-propagate-bounds      7840
 :arith-nla-propagate-eq          908285
 :arith-nra-calls                 1992
 :arith-offset-eqs                860369
 :arith-patches                   5077
 :arith-patches-success           4081
 :arith-upper                     1989300
 :binary-propagations             8766611
 :cnf-encoding-aux-vars           8
 :conflicts                       29560
 :decisions                       3176350
 :del-clause                      86137
 :elim-unconstrained              12
 :final-checks                    12347
 :max-memory                      373.40
 :memory                          115.65
 :minimized-lits                  42043
 :mk-bool-var                     65105
 :mk-clause                       302359
 :mk-clause-binary                24056
 :nlsat-conflicts                 159787
 :nlsat-decisions                 2360
 :nlsat-propagations              8845815
 :nlsat-restarts                  3
 :nlsat-stages                    4247236
 :num-allocs                      3328282133420.00
 :num-checks                      2
 :propagations                    15584720
 :restarts                        167
 :rlimit-count                    191741733
 :solve-eqs-elim-vars             39
 :solve-eqs-steps                 1216
 :time                            111.43
 :total-time                      111.36)
